(set-logic BV) (define-fun origCir ((n253 Bool) (n48 Bool) (n182 Bool) (n177 Bool) (n85 Bool)) Bool (and n253 (and (and n182 n48) (and n177 n85)))) (synth-fun skel ((n253 Bool) (n48 Bool) (n182 Bool) (n177 Bool) (n85 Bool)) Bool) (declare-var n253 Bool) (declare-var n48 Bool) (declare-var n182 Bool) (declare-var n177 Bool) (declare-var n85 Bool) (constraint (= (origCir n253 n48 n182 n177 n85) (skel n253 n48 n182 n177 n85))) (check-synth)
